NAME : tsp_168_sol.txt
COMMENT : OR-Tools Guided Local Search
TYPE : TOUR
DIMENSION : 124
COST : 9096
STATUS : ROUTING_SUCCESS
GAP : 0.00% (Reference Solution)
TOUR_SECTION
1
79
62
65
9
25
109
116
13
26
66
73
29
33
92
102
46
34
88
45
27
3
69
20
57
53
30
83
99
11
80
35
68
93
23
2
7
22
89
103
50
24
6
81
28
85
122
114
74
75
96
113
98
39
90
47
77
40
124
51
63
104
49
48
14
94
67
121
58
42
52
43
18
21
59
112
55
91
115
31
123
64
100
72
95
110
38
71
54
44
118
10
61
78
97
37
19
70
41
106
84
101
56
105
12
76
108
86
32
60
8
119
5
107
16
36
87
17
120
82
117
4
111
15
-1
